maximize 
OBJROW: V0  + 0.000100 Z_4 
Subject To
R4(0): X_0_0 + Z_0 <= 1
R4(1): X_1_1 + Z_1 <= 1
R4(2): X_2_2 + Z_2 <= 1
R4(3): X_3_3 + Z_3 <= 1
R4(4): X_4_4 + Z_4 <= 1
R8(5): 400.000000 X_0_0 + 400.000000 X_1_1 + 300.000000 X_2_2 + 200.000000 X_3_3 + 200.000000 X_4_4  >= 1001.000000
R9(6): -V0  -0.147500 X_0_0 + 0.852500 Z_0  -0.705000 X_2_2 + 0.295000 Z_2  -0.147500 X_3_3 + 0.852500 Z_3  -1.000000 X_4_4 + 0.000000 Z_4 = -1 
R10(7): V0 >= 0.005000
Bounds
0 <= Z_0 <= 1
0 <= Z_1 <= 1
0 <= Z_2 <= 1
0 <= Z_3 <= 1
0 <= Z_4 <= 1
Integers
Z_0 Z_1 Z_2 Z_3 Z_4 
Generals
V0
End